/*********************************************
 * OPL 12.6.0.0 Data
 * Author: Adrian Rodriguez Bazaga, Pau Rodriguez Esmerats
 * Creation Date: 10/12/2017 at 07:27:29
 *********************************************/

maxConsec=8;
maxPresence=16;
maxHours=10;
minHours=2;
hours=24;
demand= [26 38 39 28 33 20 26 26 27 23 26 25 22 23 19 16 7 5 0 1 0 1 0 0  ];
nNurses=48;
